(declare-const a Real)
(declare-const b Real)
(declare-const c Real)
(assert (<= (+ (pow a 2) (pow b 2) (pow c 2) (pow (+ a b c) 2)) 4))
(assert (>= a 0))
(assert (>= b 0))
(assert (>= c 0))
(assert (not (<= (+ (* -32 (pow a 2)) (* 6 (pow (+ a c) 4)) (* 16 c) (* -64 (pow b 2) (pow (* (+ 1 (* a b)) (+ 1 (* a c))) (/ 1 2))) (* -64 (pow c 2) (pow (* (+ 1 (* a b)) (+ 1 (* a c))) (/ 1 2))) (* -32 a b) (* -32 a c) (* -32 b c) (* 96 a (pow b 3)) (* 96 a (pow c 3)) (* 96 b (pow c 3)) (* 144 c (pow b 6)) (* 160 (pow b 2) (pow c 2)) (* -128 b c (pow (* (+ 1 (* a b)) (+ 1 (* a c))) (/ 1 2))) (* 48 b (pow a 2) (+ 1 (pow b 2))) (* 160 b c (pow a 2)) (* 256 a b (pow c 2)) (* 256 a c (pow b 2))) 0)))
(check-sat)
(get-model)
(exit)